
 102   30
  10   10   10   10   10   10   10   10   10   10   10   10   10   10   10   10   10   10   10   10   10   10   10   10   10   10   10   10   10   10

   0   0   0   0   0   0   0   0   0   0   0   0   0   0   0   0   0   0   0   0   0   0   0   0   0   0   0   0   0   0   0  29 2 3 4 5 6 7 8 9 10 11 12 13 14 16 17 18 19 20 21 22 23 24 26 27 28 29 31 32 39 
   1   1   0   0   4   0   0   4   2   0   0   0   3   0   0   0   0   0   0   0   1   4   0   0   0   0   0   0   0   0   0  21 101 100 98 73 71 66 64 63 61 59 56 52 51 50 49 46 45 41 40 36 30 
   4   0   0   0   0   0   0   0   0   0   0   0   0   0   0   0   2   0   1   0   0   0   0   0   0   0   0   0   0   2   0  17 101 100 95 73 67 66 64 61 59 55 54 50 48 47 44 41 15 
   1   0   0   0   0   0   0   6   0   0   0   0   0   0   0   0   5   0   0   0   0   0   0   0   0   0   0   0   0   0   0  17 101 99 72 71 68 67 65 63 62 58 54 45 44 42 40 34 25 
  10   0   0   0   0   0   1   0   0   0   0   0   0   0   0   0   0   0   0   0  10   0   0   0   0   0   0   0   0   5   5  19 101 99 98 72 71 67 66 65 64 60 59 58 56 54 46 44 42 38 34 
   9   0   0   0   0   0   0   0   8   1   0   0   0   0   0   0   0   0   0   0   0   0   0   0   0   0   0   0   0   0   0   8 73 66 64 55 52 49 37 15 
   6   0   0   0   0   3   0   0   0   0   2   3   0   0   0   0   3   2   0   0   0   0   0   0   0   0   0   0   0   0   0  13 101 99 98 73 71 68 64 58 52 51 40 37 30 
   7   4   0   0   5   0   0   0   0   0   0   5   0   0   0   0   0   0   0   0   0   0   0   1   0   2   0   0   0   0   5  11 99 94 68 66 64 59 58 48 40 35 30 
   1   0   0   0   0   0  10   6   0   0   0   0   0   0   0   0   0   0   0   0   0   0   0   0   0   0   0   0   0   6   6  17 99 98 97 73 71 70 68 65 64 61 59 58 55 51 41 40 37 
   2   0   0   0   0   0   0   0   0   0   0   0   0   0   0   0   0   0   0   1   0   0   0   0   0   0   0   0   0   0   0  16 100 98 68 67 65 64 62 61 59 57 56 55 53 52 41 33 
   4   0   0   0   4   0   0   0   0   0   0   0   0   0   0   0   0   0   0   0   0   0   0   0   0   0   0   0   1   0   0  15 101 98 97 92 72 71 68 67 66 65 62 52 51 41 40 
   6   0   0   0   0   4   0   0   4   0   0   3   0   0   0   3   0   0   0   0   0   0   0   0   0   0   0   0   3   0   0  10 98 89 70 51 49 47 46 41 40 36 
   8   0   0   0   0   0   4   0   3   7   0   0   0   0   0   0   0   0   0   0   0   0   0   0   0   8   0   0   0   0   0  16 101 98 94 93 92 90 86 72 70 69 68 65 59 52 47 40 
   7   0   0   0   0   0   0   6   0   0   0   4   0   0   1   0   0   4   0   0   0   0   0   0   0   4   0   3   0   0   0  13 99 97 92 73 68 67 65 64 63 58 52 51 37 
   9   0   0   0   0   0   0   9   0   0   0   0   0   1   0   0   0   0   0   0   0   0   0   8   0   0   2   0   5   0   0  10 99 98 91 90 72 71 56 51 40 36 
   8   0   0   0   0   0   0   0   0   0   0   0   4   0   0   0   0   0   0   0   0   0   0   0   0   0   0   0   0   0   0  19 100 99 96 94 93 91 90 88 86 73 71 68 65 60 59 57 56 53 51 
   5   0   0   1   0   0   0   0   0   0   0   0   2   6   0   0  10   0   0   0   0   0   0   0   0   0   0   0   0   0   0  13 101 95 93 92 91 89 86 72 67 65 51 48 40 
   5   0   0   0   9   0   0   0   0   0   0   0   0   4   0   0   9   0   0   0   0   0   0   0   1   0   0   5   0   0   6  18 97 96 94 93 92 90 87 86 83 73 72 71 70 69 68 65 59 47 
   4   0   0   0   0   0   0   0   0   0   0   0   0   0   6   0   0   0   0   0  10   0   0   6   0   6   0   0   0   0   3  12 97 95 93 89 86 73 71 70 51 45 43 42 
   3   0   0   0   0   0   0   0   0   0   0   0   0   0   0   5   0   0   0   8   0   0   0   7   0   0   0   0   6   0   0  13 96 92 91 90 87 73 71 69 68 64 60 57 37 
   8   0   0   0   0   0   0   0   5   0   0   9   6   0   0   0   0   0   0   8   5   0   0   0   4   0   0   0   0   0   9  11 99 97 93 91 73 68 66 63 57 44 37 
   1   0   0   0   0   0   0   0   0   0   0   0   0   0   0   0   0   0   0   0   0   0   0   0   0   0   0   0   0   0   5  17 101 100 98 96 94 93 92 88 83 82 69 65 64 63 60 59 57 
   8   0   0   0   0   0   0   0   0   0   0   7  10   0   0   0   0   0   0   0   0   0   0   0   0   1   0   0   0   0   0  15 97 96 95 94 93 88 87 86 82 71 66 59 57 55 53 
   5   8   0   0   0   0   0   0   0   0   0   0   0   0   6   0   0   0   0   5   0   0   1   0   0   0   8   0   0   0   0  15 101 96 92 91 90 87 86 82 73 72 69 60 58 57 53 
   9   7   0   5   5   0   0   2   0   8   0   6   5   0   0   0   0   0   0   0   0   0   0   0   0   0   0   0   0   0   0  11 100 98 97 95 89 82 70 64 57 55 41 
  10   0   0   0   0   0   0   0   0   0   0   0   0   3   0   0   0   0   0   0   7   0   0   0   0   0   0   0   0   0   0   7 98 93 90 64 60 40 37 
   2   0   3   0   0   0   0   0   0   0   0   0   0   9   0   0   6   0   5   0   0   0   0   0   0   0   0   2   0   0   0  17 98 96 95 93 91 87 86 84 83 80 76 72 71 70 64 57 55 
   6   0   0   0   0   0   0   0   0   6   0   0   9   0   0   0   0   0   3   0   0   0   0   0   0   0   0   0   0   0   0  13 97 95 92 91 86 76 73 72 70 65 58 57 51 
   3   0   0   0   0   0   0   0   0   0   0   9   0   2   0   4   0   0   0   0   0   0   0   7   0   0   0   0   0   0   0  12 99 94 91 90 86 80 72 68 60 57 56 53 
   8   0   0   0  10   0   0   0   0   0   0   0   0   0   0   0   0   0   0   0   0   0   0   0   0   0   0   0   0   0   0  16 96 95 93 91 87 86 84 83 82 81 80 79 72 70 60 55 
   3   0   0   0   0   0   0   0   0   0   0   9   6   0   0   0   0   0   0   0   0   0   0   0   0   7   0   0   0  10   0  14 95 94 92 91 89 87 83 82 78 77 76 65 64 63 
   8   0   0   0   0   0   0   6   0   5   9   0   0   0   0   0   0   0   0   0   6   0   7   0   0   0   3   0   0   0   0  11 92 90 89 88 85 80 69 68 63 57 53 
   4   0   0   0   0   0   0   0   0   0   0   0   0   0   0   0   0   0   0   6   0   0   0   0   0   0   0   0   0   0   0  19 95 94 93 90 89 86 85 84 83 82 81 80 79 78 77 76 73 70 69 
   1   0   0   0   0   0   0   0   6   0   0   0   0   0   8   0   0   3   0   0   4   0   0   0   0   0   0  10   0   0   0   9 94 92 91 86 80 78 70 52 51 
   3   6  10   0   0   0   0   0   3   8   0   0   0   0   0   0   0   0   0   0   0   6   0   0   0   0   0   0   0   0   0  14 101 96 95 93 88 87 83 82 81 80 78 77 75 63 
   6   0   0   0   8   0   0   0   0   0   0   0   0   0   0   0   0   0   0   9   0   0   7   0   0   0   6   0   0   0   0  11 97 94 92 87 86 77 76 69 68 65 58 
   9   0   0   0   2   0   0   0   0   0   0   5  10   0   0   0   4   0   0   0   0   0   0   0   0   0   0   0   0   0   0  11 100 95 94 89 88 86 82 81 80 77 53 
   4   3   0   0   0   0   0   0   0   0   0   0   0   0   4   0   0   6   0   0   0   0   0   0   0   0   0   0   0   0   0  11 92 88 84 81 80 77 76 75 70 69 68 
   9   0   0   0   0   0   0   0   0   0   0   0   0   0   0   7   0   0   0   0   0   0   0   0   0   0   0   0   0   0   0   9 98 91 86 84 82 80 79 69 59 
   9   0   0   0   0   0   3   0   0   0   0   0   0   0   0   0   0   0   0   0   0   0   9   0   0   0   0   0   0   0   5   5 96 85 80 57 53 
   6   0   0   0   0   0   0   0   0   0   0   0   0   0   0   0   0   0   0   0   0   4   0   0   0   0   0   0   0   0   0  13 94 93 91 90 88 87 86 85 83 77 76 75 74 
   5   0   0   0   0   0   0   0   0   0   0   0   0   0   0   0   0   0   9   0   0   0   6   0   0  10   4   0   8   0   0   8 100 92 88 85 80 76 74 57 
  10   9   0   0   0   0   0   0   0   0   0   0   5   0   0   0   4   0   0   0   0   0   0   0   0   0   0   6   0   0   0   7 88 87 82 81 80 69 53 
   9   0   0   0   0   0   0   0   0   0   0   0   0   0   0   0   0   0   0   0   4   0   0   0   0   0   0   0   0   0   3  11 94 90 88 87 83 82 80 79 78 76 69 
  10   0   0   0   0   0   0   0   0   0   7   0   0   7   0   7   0   0   5   0   0   0   0   0   5   5   7   0   0   0  10   7 94 91 90 83 80 76 57 
   9   0   0   6   0   0   0   0   0   0   0   0   0   7   0   8   0   0   0   4   0   0   0   0   0   0   0   0   0   3   0   6 95 87 82 77 69 53 
   1   0   1   5   0   0   0   0   0   0   0   0   0   0   0   0   0   6   0   0   0   0   0   0   0   0   0   0   0   0   0   6 99 91 85 76 74 57 
   3   0   0   0   0   0   9   0   0   0   0   0   0   0   0   0   0   0   0   5   0   0   0   0   0   0   0   0   0   0   0   8 98 90 88 87 84 78 71 70 
   9   0   0   0   0   7   0   7   9   0   0   0   0   0   0   0   0   0   0   0   0  10   0   0   0   6   0   8   0   0   0   8 99 91 85 80 78 77 76 69 
   7   8   0   0   0   0   0   0   0   0   0   0   0   0   0   0   0   0   0   0   0   0   0   0   0   0   7   0   0   0   0   8 90 89 87 82 81 78 76 69 
   2   0   0   0   0   0   0   0   0   0   0   0   0   0   0   0   0   0   8   0   0   6   5   0   0   6   0   0   0   0   0   7 87 85 82 81 77 75 69 
   8   0   0   0   0   0   0   0   0   0   0   0   0   0   0   0   0   0   6   0   0   0   0   0   0   0   0   0   0   0   0   7 96 95 89 87 85 76 74 
   9   0   0   6   0   0   0   0   0   0   0   0   0   0   0   0   0   9   0   0   0   0   0   0   0   0   5   6   0   0   0   6 84 83 78 76 75 74 
   2   0   0   0   0   0   0   0   0   0   0   0   0   9   0   0   0   0   0   0   0   0   0   0   0   0   0   0   0   6   0   6 91 90 89 87 78 77 
   5   0   0   0   0   0   0   0   0   0   0   0   0   0   0   0   9   0   0   0   0   0   0   0   0   0   0   0   8   0   0   5 92 90 85 75 69 
  10   0   0   0   0   0   0   0   0   0   0   0   6   0   0   0   0   0   0   0   0   0   9   0   9   0   0   0   0   0   0   5 85 84 82 75 70 
   1   0  10   0   0   0   0   0   7   0   0   0   0   0   0   0   0   0   0   0   0   6   0   0   0   0   0   0   6   6   0   5 81 79 78 77 75 
   4   8   0   0   0   0   0   0   0   0   0   0   0   0   0   0   0   0  10   0   0   0   0   0   0   0   0   0   0   0   0   5 93 83 80 79 74 
   8   0   0   0   0   0   0   0   7   0   0   0   8   0   0   0   0   0   0   0   0   0   0   0   0   0   0   0   7   0   0   5 89 85 77 76 74 
   8   0   0   0   4   0   0   0   0   0   9   0   0   0   0   0   0   0   0   0   5   0   0   8   0   0   0   0   0   9   0   5 97 89 76 75 74 
   8   0   0   0   8   0   0   0   0   0   0   5   0   8   0   0   4   5   0   9   0   0   0   5   0   0   0   0   0   0   3   5 96 90 83 81 75 
   6   0   6   0   7   0   0   0   0   0   0   0   8   0   8   0   0   0   0   0   0   8   0   0   0   8   0   0   8   0   0   5 82 79 78 75 74 
   5   0   0   8   0   4   0   0   0   0   6   0   0   0   0   0   0   0   0   0   0   0   0   0   0   0   9   0   0   0   0   4 86 84 79 70 
   3   0   0   5   0   0   0   0   0   0   0   0   0   0   0   4   0   0   0   0   5   0   0   0   0   0   0   0   0   0   0   4 85 81 79 74 
  10   0   0   0   0   0   0   7   0   0   0   0   4   0   0   5   0   0   0   0   0   0   0   0   0   0   0   0   0   7   0   3 84 80 75 
   3   0   0   0   0   0   0   0   0   0   0   0   0   7   0   0   0   6   0   0   0   0   0   0   5   0   0   4   0   0   0   3 80 76 74 
   3   0   0   0   0   0   0   0   6   8   0   0   0   0   0   0   0   0   0   0   0   0   0   8   8   0   0   0   0   0   6   2 79 70 
   7   0   0   0   0   0   0   0   6   0   0   4   0   0   0   0   7   0   0   0   0   0   7   0   0   0   6   7   6   0   0   2 82 79 
  10   3   0  10   0   0   0   0   0   0   0   0   0   0   0   0   0   0   0   0   0   0   0   0   8   0   0   0   0   0   6   1 74 
   7   0   0   0   0   0   0   0   0   0   0   5   0   0   0  10   0   0   5   5   0   5   0   0   0   0   0   5   0   0   6   1 74 
  10   4   0   4   0   5   0   0   4   0   0   0   0   0   0   0   0   0   0   0   0   0   0   0   0   0   0   0   0   0  10   1 75 
   8   0   0   0   0   5   0   0   0   0   0   0   0   0   8   0   0   0   0   0   0   8   0   0   0   0   8   0   7   0   0   1 88 
   5   0   0   0   0   0   4   0   0   0   0   5   7   0   0   0   0   0   0   0   0   0   0   0   0   0   0   0   0   0   0   1 75 
   8   7   0   8   0   0   0   0   0   0  10   0   0   0   0   0   0   0   0   0   0   0   0   0   0   0   0   0   0   0   0   1 102
  10   0   0   0   0  10   7   6   0   0   0   0   3   0   0   0   5   0  10   0   0   4   0   7   0   0   0   0   0   0   0   1 102
   2   0   6   0   0   0   0   0  10   0   0   0   0   0   0   0   0   0   0   0   0   0   0   0   0   0   0   0   0   0   0   1 102
   1   5   6   5   0   0   0   0   0   0   0   0   0   0   0   0   0   0   0   0   0   0   0   0   0   0   0   6   0   0   0   1 102
   8   0   0   0   0   0   0   0   0   0   0   0   0   0   0   7   0   0   0   0   0  10   0   0   5   0   0   0   7   0   0   1 102
  10   0   0   0   0   0   0   0   0   0   0   0   0   0   0   0   0   0   0   0   0   0   0   0   7   0   0   0   0   7   0   1 102
   3   9   0   0   0   0   0   0   0   0   0   6   0   0   0   0   0   0   0   0   0   0   3   0   0   0   0   8   0   0   0   1 102
   5   0   0   0   0   0   0   0   0   0   0   0   0   0   0   0  10   0   0   0   0   0   0   0   0   0  10  10   0   0   0   1 102
   9   0   0   0   0   5   0   0   0   0   0   0   2   0   0   0   0   0   0   0   0   0   0   0   0   0   0   0   0   5   0   1 102
   2   0   7   0   0   7   0   0   0   0   0   4   0   0   0  10   0   0   0   0   0   5   0   0   0   0   0   6   0   0   0   1 102
   3   0   0   0   0   0   0  10   0   0   0   5   0   7   0   0   0   0   0   0   0   0   0   0   0   0   0   0   0   0   0   1 102
  10   0   0   0   0   0   0   0   0   0   6   9   0   0   0   0   0   0   0   0   0   0   0   0   0   0   0   0   0   0   0   1 102
   3   0   0   0   0   0   0   0   0   0   0   0   0   0   0   0   0   0   0   5   0   0   0   5   7   0   4   5   0   0   0   1 102
   3   0   0   0   0   7   0   0   0   0   2   0   0   0   0   0   0   0   0   0   0   0   0   0   7   9   0   0   0   0   0   1 102
   6   0   0   0   0   0   0   0   0   0   0   6   0   0   0   0   0   9   5   0   0   0   0   0   0   0   0   0   0   0   0   1 102
   8   0   7   0   0   0   4   0   0   0   0   0   0   0   0   6   0   0   7   0   6   0   0   0   0   0   0   0   0   0   0   1 102
   8   0   0   0   0   0   0   0   0   0   0   0   0   0   0   2   0   0   0   0   7   0   0   0   0   0   0   0   0   0   0   1 102
   7   0   0   8   0   8   0   0   0   0   0   0   0   0   0   0   0   0   0   0   0   0   0   0   0   0   0   0   0   0   0   1 102
  10   0   0   4   0   0   0   4  10   0   0   0   0   0   0   0   0   0   0   0   0   0   0   0   0   9   0   0   0   0   0   1 102
   5   0   0   0   0   0   0   5   0   0   0   0   0   0   0   0   0   0   0   0   0   0   0   0   0   0   0   0   0   0   0   1 102
   3   0   0   0   0   0   0   0   0   0   0   0   0   0   0   0   0   0   0   0   8   0   0   0   0   0   0   3   0   0   4   1 102
   8   0   0   0   0   0  10   6   0   9   0   8   0   0   5   0   0   0   0   0   0   0   0   0   0   0   0   0   0   0   0   1 102
   5   0   4   9   0   0   0   0   0   0   5   0   0   8   0   0   0   0   0   0   0   0   0   0   0   0   5   0   0   0  10   1 102
   8   0   0   0   0   0   0   0   0   0   0  10   0   0   0   0   0   0   3   0   0   0   0   0   0   0   0   0   0   0   0   1 102
   3   8   0   0   0   0   0   0   0   2   0   0   0   0   0   0   0   0   0   0   6   0   0   0   0   3   0   7   0   0   0   1 102
   8   0   0   0   0   7   0   0   0   0   0   5   0   0   0   0   0   0   7   0   0   0   0   4   0   0   0   0   0   0   0   1 102
   5   0   0   0   0   0   0   0   0   0   0   0   0   0   6   0   0   0   0   7   0   2   0   0   0   0   0   4   0   0   0   1 102
   7   0   0   0   0   0   8   0   0   0   4   0  10   0   8   0   0  10   0   0   0   0   0   0   0   0   0   9   0   0   0   1 102
   0   0   0   0   0   0   0   0   0   0   0   0   0   0   0   0   0   0   0   0   0   0   0   0   0   0   0   0   0   0   0   0 
